27 3
4 3 6
0 0 0 0 25 2 3 4 5 6 7 8 9 10 11 12 13 14 15 16 17 18 19 20 21 22 23 24 25 26
3 1 0 2 5 27 15 7 18 7
4 2 0 3 3 27 18 23
2 0 1 3 4 27 23 19 7
2 0 0 3 4 27 23 26 13
4 1 1 2 2 27 17
4 2 1 2 2 27 20
4 1 1 1 5 27 9 11 18 17
5 2 1 2 4 27 24 18 23
3 0 1 1 1 27
5 1 1 1 1 27
5 0 1 2 4 27 16 17 18
1 0 1 0 6 27 24 14 19 26 15
3 0 1 0 2 27 19
3 0 1 3 6 27 18 23 18 22 17
5 1 1 0 4 27 20 17 18
4 2 0 0 4 27 26 24 26
5 0 1 3 2 27 22
1 1 1 0 1 27
1 2 0 2 2 27 21
1 2 0 2 2 27 24
3 0 0 2 1 27
3 1 1 2 1 27
1 1 0 2 1 27
2 0 1 3 2 27 26
4 0 1 2 1 27
0 0 0 0 0
